c   #vars: 83   #clauses: 371   #literals: 1034
c 
p cnf 83 371
18 19 32 -58 0
-2 -3 0
-4 -5 0
-6 -7 0
-8 -9 0
-10 -11 0
-12 -13 0
-14 -15 0
-16 -17 0
-18 -19 0
-20 -21 0
-22 -23 0
26 27 68 69 0
-24 -25 0
6 7 52 53 0
-26 -27 0
-28 -29 0
-30 -31 0
33 -54 63 -80 0
-33 54 63 -78 0
-34 -35 0
-36 -37 0
-38 -39 0
-40 -41 0
-42 -43 0
-44 -45 0
-46 -47 0
-48 -49 0
-50 -51 0
-52 -53 0
6 7 55 -75 0
-36 38 39 60 0
-56 -57 0
-58 -59 0
-34 50 51 70 0
-61 -62 0
6 7 54 -63 0
6 7 54 -78 0
-64 -65 0
-66 -67 0
-68 -69 0
-22 50 51 71 0
-38 50 51 74 0
-72 -73 0
-42 48 49 81 0
-75 -76 0
-77 -78 0
6 7 61 62 0
-79 -80 0
-6 55 75 76 0
12 13 30 31 0
-82 -83 0
12 13 61 62 0
-4 18 19 32 0
-1 -31 0
-10 36 37 60 0
4 5 32 -58 0
-1 -76 0
28 29 77 78 0
4 5 -18 32 0
-1 -78 0
54 -63 77 78 0
-2 -36 0
-3 -37 0
-5 33 79 80 0
-2 -40 0
-3 -41 0
36 37 72 73 0
-2 -77 0
-3 -78 0
-2 -79 0
-3 -80 0
36 37 -38 60 0
-5 33 -54 63 0
-5 -32 0
46 47 79 80 0
-4 -33 0
-7 -33 54 63 0
-4 -34 0
-5 -35 0
55 -66 75 76 0
-4 -52 0
-5 -53 0
28 29 48 49 0
-6 -40 0
-7 -41 0
20 21 79 80 0
-6 -52 0
-7 -53 0
-6 -54 0
6 7 55 -66 0
2 3 77 78 0
-10 38 39 60 0
-7 -55 0
22 23 66 67 0
-6 -61 0
-7 -62 0
20 21 58 59 0
-6 -72 0
-7 -73 0
4 5 33 -63 0
-14 48 49 81 0
-7 -74 0
-8 -42 0
-9 -43 0
28 29 75 76 0
-8 -58 0
-9 -59 0
10 11 82 83 0
-6 50 51 74 0
-9 -71 0
16 17 61 62 0
-8 -72 0
-9 -73 0
46 47 72 73 0
-8 -75 0
-9 -76 0
4 5 33 -80 0
-10 -56 0
-11 -57 0
-20 50 51 70 0
-11 -60 0
-18 32 58 59 0
-10 -66 0
-11 -67 0
-4 32 58 59 0
-10 -82 0
-11 -83 0
26 27 46 47 0
-12 -30 0
-13 -31 0
22 23 56 57 0
-12 -40 0
-13 -41 0
22 23 38 39 0
-12 -58 0
-13 -59 0
22 23 34 35 0
-12 -61 0
-13 -62 0
2 3 36 37 0
-12 -64 0
-13 -65 0
6 7 -38 74 0
-12 -66 0
-13 -67 0
16 17 68 69 0
-14 -42 0
-15 -43 0
16 17 56 57 0
-14 -52 0
-15 -53 0
8 9 75 76 0
-14 -58 0
-15 -59 0
12 13 66 67 0
-14 -72 0
-15 -73 0
16 17 79 80 0
-15 -81 0
24 25 82 83 0
24 25 68 69 0
-16 -42 0
-17 -43 0
6 7 72 73 0
-16 -56 0
-17 -57 0
20 21 -34 70 0
-16 -61 0
-17 -62 0
-16 -68 0
-17 -69 0
14 15 72 73 0
-16 -79 0
-17 -80 0
8 9 72 73 0
-26 33 63 -80 0
-19 -32 0
4 5 34 35 0
-18 -36 0
-19 -37 0
-18 -44 0
-19 -45 0
10 11 66 67 0
-18 -56 0
-19 -57 0
18 19 56 57 0
-20 -44 0
-21 -45 0
-20 -46 0
-21 -47 0
12 13 58 59 0
-20 -48 0
-21 -49 0
48 49 61 62 0
-20 -58 0
-21 -59 0
30 31 75 76 0
-20 -68 0
-21 -69 0
34 35 82 83 0
-8 50 51 71 0
-21 -70 0
6 7 40 41 0
-20 -79 0
-21 -80 0
-22 -34 0
-23 -35 0
12 13 40 41 0
-22 -36 0
-23 -37 0
18 19 44 45 0
-22 -38 0
-23 -39 0
24 25 52 53 0
-22 -56 0
-23 -57 0
40 41 64 65 0
-22 -66 0
-23 -67 0
22 23 36 37 0
38 39 -50 74 0
-23 -71 0
26 27 -54 63 0
-24 -46 0
-25 -47 0
26 27 -33 63 0
-24 -48 0
-25 -49 0
1 75 76 -77 0
-24 -52 0
-25 -53 0
26 27 61 62 0
-24 -68 0
-25 -69 0
44 45 66 67 0
-24 -82 0
-25 -83 0
16 17 42 43 0
1 30 31 -77 0
42 43 58 59 0
26 27 75 76 0
1 30 31 -75 0
-26 -46 0
-27 -47 0
-26 -61 0
-27 -62 0
1 -75 77 78 0
38 39 82 83 0
-27 -63 0
14 15 52 53 0
-26 -68 0
-27 -69 0
2 3 79 80 0
-26 -75 0
-27 -76 0
28 29 30 31 0
-28 -30 0
-29 -31 0
33 -63 79 80 0
-28 -48 0
-29 -49 0
-7 54 77 78 0
-28 -50 0
-29 -51 0
-28 -75 0
-29 -76 0
-28 -77 0
-29 -78 0
24 25 46 47 0
-30 -75 0
-31 -76 0
44 45 72 73 0
-30 -77 0
-31 -78 0
1 -30 77 78 0
-5 -26 33 63 0
-32 -59 0
1 -30 75 76 0
-8 22 23 71 0
-26 54 63 -78 0
20 21 48 49 0
-33 -79 0
-7 -26 54 63 0
2 3 40 41 0
8 9 -50 71 0
-35 -70 0
20 21 -50 70 0
-34 -82 0
-35 -83 0
34 35 -50 70 0
-37 -60 0
40 41 77 78 0
-36 -66 0
-37 -67 0
-36 -72 0
-37 -73 0
-20 34 35 70 0
-39 -60 0
52 53 82 83 0
14 15 -48 81 0
-39 -74 0
48 49 75 76 0
-38 -82 0
-39 -83 0
24 25 48 49 0
-40 -61 0
-41 -62 0
22 23 -50 71 0
-40 -64 0
-41 -65 0
-40 -77 0
-41 -78 0
40 41 61 62 0
-42 -58 0
-43 -59 0
18 19 36 37 0
-42 -64 0
-43 -65 0
-43 -81 0
10 11 56 57 0
-44 -66 0
-45 -67 0
20 21 44 45 0
-44 -72 0
-45 -73 0
28 29 50 51 0
-46 -72 0
-47 -73 0
42 43 -48 81 0
-46 -79 0
-47 -80 0
14 15 58 59 0
-48 -61 0
-49 -62 0
8 9 58 59 0
-48 -75 0
-49 -76 0
8 9 42 43 0
-49 -81 0
52 53 64 65 0
8 9 -22 71 0
-51 -70 0
20 21 68 69 0
-6 38 39 74 0
-51 -71 0
4 5 52 53 0
14 15 -42 81 0
-51 -74 0
6 7 -50 74 0
-52 -64 0
-53 -65 0
52 53 72 73 0
-52 -72 0
-53 -73 0
12 13 64 65 0
-52 -82 0
-53 -83 0
-14 42 43 81 0
30 31 77 78 0
36 37 66 67 0
55 66 67 -75 0
20 21 46 47 0
-54 -77 0
-6 55 66 67 0
14 15 42 43 0
10 11 -38 60 0
-55 -67 0
42 43 64 65 0
10 11 -36 60 0
-55 -76 0
